
n_res = 4;
rcap = [19, 21, 72, 74];
rtype = [1, 1, 2, 2];
n_tasks = 50;
modes =  [{1, 2, 3}, {4, 5, 6}, {7, 8, 9}, {10, 11, 12}, {13, 14, 15}, {16, 17, 18}, {19, 20, 21}, {22, 23, 24}, {25, 26, 27}, {28, 29, 30}, {31, 32, 33}, {34, 35, 36}, {37, 38, 39}, {40, 41, 42}, {43, 44, 45}, {46, 47, 48}, {49, 50, 51}, {52, 53, 54}, {55, 56, 57}, {58, 59, 60}, {61, 62, 63}, {64, 65, 66}, {67, 68, 69}, {70, 71, 72}, {73, 74, 75}, {76, 77, 78}, {79, 80, 81}, {82, 83, 84}, {85, 86, 87}, {88, 89, 90}, {91, 92, 93}, {94, 95, 96}, {97, 98, 99}, {100, 101, 102}, {103, 104, 105}, {106, 107, 108}, {109, 110, 111}, {112, 113, 114}, {115, 116, 117}, {118, 119, 120}, {121, 122, 123}, {124, 125, 126}, {127, 128, 129}, {130, 131, 132}, {133, 134, 135}, {136, 137, 138}, {139, 140, 141}, {142, 143, 144}, {145, 146, 147}, {148, 149, 150}];
succ =  [{33, 31, 29, 26, 21, 18, 17, 11}, {33, 29, 25, 20, 15, 12, 10}, {33, 29, 28, 19, 17, 12, 10}, {22, 21, 13, 11, 9}, {33, 31, 30, 29, 26, 24, 23, 21, 17}, {33, 31, 26, 25, 16, 11}, {31, 30, 29, 26, 22, 21, 11}, {40, 33, 29, 28, 12}, {37, 34, 32, 31, 30, 29, 28, 26}, {27, 26, 23, 21}, {44, 40, 36, 34, 32, 28, 27, 23}, {45, 30, 27, 23, 21}, {44, 42, 37, 36, 34, 32, 31, 28, 27}, {45, 44, 40, 36, 34, 32, 27, 23}, {44, 43, 30, 28, 24, 23}, {45, 40, 30, 27, 21}, {45, 39, 36, 34, 32, 27, 25}, {45, 34, 30, 22}, {50, 44, 42, 40, 39, 37, 36, 32, 31}, {43, 42, 40, 37, 35, 34, 30}, {44, 43, 42, 34, 32}, {44, 43, 42, 41, 37, 32}, {50, 42, 41, 39, 37, 35}, {49, 48, 42, 37, 34}, {49, 44, 42, 41, 40, 38}, {45, 43, 41, 40, 36}, {50, 49, 48, 43, 41, 38}, {49, 45, 41, 39, 38}, {49, 48, 44, 42, 35}, {49, 41, 39, 36}, {49, 43, 41, 35}, {49, 48, 35}, {49, 48, 47, 45}, {50, 41}, {38}, {38}, {38}, {47, 46}, {48, 46}, {48, 47}, {46}, {47}, {46}, {46}, {46}, {}, {}, {}, {}, {}];
n_opt = 150;
dur = [3, 5, 9, 4, 9, 10, 2, 3, 7, 1, 4, 10, 9, 10, 10, 2, 6, 9, 8, 9, 10, 5, 9, 10, 2, 4, 7, 2, 7, 10, 1, 2, 3, 1, 4, 9, 1, 2, 6, 1, 4, 9, 1, 6, 7, 3, 8, 9, 5, 6, 10, 3, 5, 6, 1, 2, 4, 2, 3, 5, 2, 3, 7, 1, 1, 10, 4, 8, 10, 2, 5, 8, 5, 5, 6, 5, 6, 6, 2, 2, 6, 2, 8, 9, 2, 2, 3, 1, 2, 9, 2, 2, 7, 4, 5, 9, 1, 5, 8, 3, 8, 9, 1, 3, 6, 4, 5, 6, 2, 8, 8, 4, 4, 7, 3, 6, 8, 9, 10, 10, 1, 2, 3, 3, 4, 7, 2, 6, 7, 3, 5, 9, 1, 8, 10, 2, 3, 5, 1, 3, 7, 2, 3, 4, 5, 6, 7, 1, 8, 10];
rreq = [|5, 4, 0, 0, 0, 4, 1, 1, 1, 2, 1, 0, 4, 4, 4, 9, 0, 7, 6, 3, 0, 0, 0, 0, 7, 0, 5, 3, 2, 0, 7, 0, 3, 0, 0, 0, 0, 0, 0, 0, 7, 0, 0, 3, 3, 8, 6, 3, 9, 0, 0, 9, 5, 0, 4, 4, 4, 0, 4, 0, 7, 5, 0, 6, 0, 2, 6, 6, 0, 9, 0, 5, 0, 0, 0, 5, 4, 4, 0, 0, 3, 0, 0, 4, 0, 0, 0, 0, 0, 6, 0, 9, 9, 9, 0, 4, 10, 0, 9, 8, 0, 0, 0, 6, 2, 0, 0, 0, 0, 4, 0, 9, 0, 0, 7, 0, 4, 6, 5, 0, 4, 2, 1, 4, 0, 3, 7, 5, 0, 0, 0, 1, 0, 7, 0, 0, 5, 0, 0, 3, 0, 7, 0, 0, 0, 0, 0, 5, 0, 5
 |0, 0, 6, 7, 5, 0, 0, 0, 0, 0, 0, 1, 0, 0, 0, 0, 4, 0, 0, 0, 2, 5, 3, 1, 0, 6, 0, 0, 0, 4, 0, 3, 0, 10, 7, 4, 9, 8, 5, 6, 0, 4, 8, 0, 0, 0, 0, 0, 0, 6, 6, 0, 0, 3, 0, 0, 0, 6, 0, 3, 0, 0, 5, 0, 9, 0, 0, 0, 1, 0, 3, 0, 4, 3, 2, 0, 0, 0, 9, 7, 0, 7, 6, 0, 4, 4, 4, 9, 8, 0, 7, 0, 0, 0, 2, 0, 0, 6, 0, 0, 9, 9, 9, 0, 0, 2, 1, 1, 5, 0, 3, 0, 4, 3, 0, 5, 0, 0, 0, 1, 0, 0, 0, 0, 5, 0, 0, 0, 7, 4, 2, 0, 10, 0, 10, 3, 0, 1, 9, 0, 8, 0, 7, 5, 8, 6, 5, 0, 7, 0
 |0, 0, 0, 10, 0, 0, 10, 9, 0, 0, 0, 0, 0, 0, 3, 0, 0, 1, 0, 3, 0, 5, 5, 0, 7, 5, 4, 0, 3, 0, 0, 4, 0, 8, 0, 5, 0, 0, 0, 0, 3, 0, 7, 0, 0, 6, 5, 0, 6, 6, 0, 8, 0, 2, 6, 0, 2, 0, 8, 0, 4, 0, 0, 8, 7, 6, 0, 8, 8, 6, 0, 0, 0, 3, 0, 10, 0, 3, 0, 1, 0, 0, 0, 4, 0, 8, 4, 7, 3, 1, 3, 0, 0, 6, 4, 2, 0, 2, 2, 0, 0, 0, 0, 0, 0, 6, 0, 0, 0, 0, 7, 0, 0, 1, 7, 5, 4, 0, 0, 0, 0, 0, 5, 0, 0, 0, 4, 3, 3, 8, 0, 5, 0, 0, 2, 0, 7, 0, 0, 0, 1, 0, 3, 1, 0, 0, 5, 7, 4, 1
 |2, 2, 2, 0, 2, 1, 0, 0, 3, 5, 3, 2, 3, 2, 0, 7, 5, 0, 8, 0, 8, 0, 0, 2, 0, 0, 0, 5, 0, 3, 4, 0, 1, 0, 7, 0, 9, 5, 5, 8, 0, 7, 0, 3, 2, 0, 0, 2, 0, 0, 3, 0, 7, 0, 0, 8, 0, 6, 0, 5, 0, 8, 6, 0, 0, 0, 6, 0, 0, 0, 4, 3, 3, 0, 1, 0, 8, 0, 8, 0, 7, 3, 2, 0, 10, 0, 0, 0, 0, 0, 0, 4, 2, 0, 0, 0, 5, 0, 0, 9, 7, 6, 3, 2, 1, 0, 4, 3, 1, 1, 0, 6, 6, 0, 0, 0, 0, 9, 8, 7, 3, 2, 0, 8, 7, 3, 0, 0, 0, 0, 8, 0, 7, 4, 0, 6, 0, 5, 2, 1, 0, 2, 0, 0, 1, 1, 0, 0, 0, 0|];